NAME : cgl_50.5357.tour
COMMENT : Length = 5357
COMMENT : Found by LKH-3 [Keld Helsgaun] Fri Nov  8 17:38:20 2024
TYPE : TOUR
DIMENSION : 51
TOUR_SECTION
38
41
42
43
47
46
48
44
45
49
2
1
3
6
4
5
17
14
15
12
13
16
10
11
7
9
8
51
28
27
25
26
24
23
22
21
20
19
30
29
18
31
32
33
34
50
35
36
37
40
39
-1
EOF
